Minimize
	value: tt

Subject to
tt + 1000 s_1_1 > 0.0
tt - t_1_1 - 1006.219592 s_1_1  + 3.109796 s_1_8  + 3.109796 s_1_7  > -977.465467
tt + 1000 s_2_1 > 0.0
tt - t_2_1 - 1005.653373 s_2_1  + 2.826686 s_2_8  + 2.826686 s_2_7  > -957.725778
tt + 1000 s_1_2 > 0.0
tt - t_1_2 - 1003.109796 s_1_2  + 3.109796 s_1_7  > -977.489600
tt + 1000 s_2_2 > 0.0
tt - t_2_2 - 1002.826686 s_2_2  + 2.826686 s_2_7  > -957.963489
tt + 1000 s_1_3 > 0.0
tt - t_1_3 - 1006.219592 s_1_3  + 3.109796 s_1_8  + 3.109796 s_1_7  > -997.517733
tt + 1000 s_2_3 > 0.0
tt - t_2_3 - 1005.653373 s_2_3  + 2.826686 s_2_8  + 2.826686 s_2_7  > -994.665217
tt + 1000 s_1_4 > 0.0
tt - t_1_4 - 1003.109796 s_1_4  + 3.109796 s_1_7  > -995.077600
tt + 1000 s_2_4 > 0.0
tt - t_2_4 - 1002.826686 s_2_4  + 2.826686 s_2_7  > -991.794050
tt + 1000 s_1_5 > 0.0
tt - t_1_5 - 1003.109796 s_1_5  + 3.109796 s_1_8  > -989.431900
tt + 1000 s_2_5 > 0.0
tt - t_2_5 - 1002.826686 s_2_5  + 2.826686 s_2_8  > -979.202600
tt + 1000 s_1_6 > 0.0
tt - t_1_6 - 1018.658775 s_1_6  + 3.109796 s_1_1  + 3.109796 s_1_4  + 3.109796 s_1_3  + 3.109796 s_1_5  + 3.109796 s_1_7  + 3.109796 s_1_2  > -998.235000
tt + 1000 s_2_6 > 0.0
tt - t_2_6 - 1016.960118 s_2_6  + 2.826686 s_2_1  + 2.826686 s_2_4  + 2.826686 s_2_3  + 2.826686 s_2_5  + 2.826686 s_2_7  + 2.826686 s_2_2  > -995.943600
tt + 1000 s_1_7 > 0.0
tt - t_1_7 - 1000.000000 s_1_7  > -969.204400
tt + 1000 s_2_7 > 0.0
tt - t_2_7 - 1000.000000 s_2_7  > -965.648925
tt + 1000 s_1_8 > 0.0
tt - t_1_8 - 1000.000000 s_1_8  > -954.436300
tt + 1000 s_2_8 > 0.0
tt - t_2_8 - 1000.000000 s_2_8  > -956.516900
s_1_1 + s_2_1 = 1
s_1_2 + s_2_2 = 1
s_1_3 + s_2_3 = 1
s_1_4 + s_2_4 = 1
s_1_5 + s_2_5 = 1
s_1_6 + s_2_6 = 1
s_1_7 + s_2_7 = 1
s_1_8 + s_2_8 = 1
s_1_1 + s_1_2 + 1000 r_1_1_2 >= 2
- s_1_1 - s_1_2 - 1000 r_1_1_2 >= -1001
t_1_1 - t_1_2 - 1000.000000 u_1_1_2 - 3.109796 s_1_2  + 3.109796 s_1_7  + 2000.000000 r_1_1_2 > -977.489600
s_2_1 + s_2_2 + 1000 r_2_1_2 >= 2
- s_2_1 - s_2_2 - 1000 r_2_1_2 >= -1001
t_2_1 - t_2_2 - 1000.000000 u_2_1_2 - 2.826686 s_2_2  + 2.826686 s_2_7  + 2000.000000 r_2_1_2 > -957.963489
s_1_1 + s_1_3 + 1000 r_1_1_3 >= 2
- s_1_1 - s_1_3 - 1000 r_1_1_3 >= -1001
t_1_1 - t_1_3 - 1000.000000 u_1_1_3 - 6.219592 s_1_3  + 3.109796 s_1_8  + 3.109796 s_1_7  + 2000.000000 r_1_1_3 > -997.517733
s_2_1 + s_2_3 + 1000 r_2_1_3 >= 2
- s_2_1 - s_2_3 - 1000 r_2_1_3 >= -1001
t_2_1 - t_2_3 - 1000.000000 u_2_1_3 - 5.653373 s_2_3  + 2.826686 s_2_8  + 2.826686 s_2_7  + 2000.000000 r_2_1_3 > -994.665217
s_1_1 + s_1_4 + 1000 r_1_1_4 >= 2
- s_1_1 - s_1_4 - 1000 r_1_1_4 >= -1001
t_1_1 - t_1_4 - 1000.000000 u_1_1_4 - 3.109796 s_1_4  + 3.109796 s_1_7  + 2000.000000 r_1_1_4 > -995.077600
s_2_1 + s_2_4 + 1000 r_2_1_4 >= 2
- s_2_1 - s_2_4 - 1000 r_2_1_4 >= -1001
t_2_1 - t_2_4 - 1000.000000 u_2_1_4 - 2.826686 s_2_4  + 2.826686 s_2_7  + 2000.000000 r_2_1_4 > -991.794050
s_1_1 + s_1_5 + 1000 r_1_1_5 >= 2
- s_1_1 - s_1_5 - 1000 r_1_1_5 >= -1001
t_1_1 - t_1_5 - 1000.000000 u_1_1_5 - 3.109796 s_1_5  + 3.109796 s_1_8  + 2000.000000 r_1_1_5 > -989.431900
s_2_1 + s_2_5 + 1000 r_2_1_5 >= 2
- s_2_1 - s_2_5 - 1000 r_2_1_5 >= -1001
t_2_1 - t_2_5 - 1000.000000 u_2_1_5 - 2.826686 s_2_5  + 2.826686 s_2_8  + 2000.000000 r_2_1_5 > -979.202600
t_1_6 - t_1_1 - 1006.219592 s_1_1  + 3.109796 s_1_8  + 3.109796 s_1_7  > -977.465467
t_1_6 - t_2_1 - 1005.653373 s_2_1  + 2.826686 s_2_8  + 2.826686 s_2_7  > -957.725778
t_2_6 - t_1_1 - 1006.219592 s_1_1  + 3.109796 s_1_8  + 3.109796 s_1_7  > -977.465467
t_2_6 - t_2_1 - 1005.653373 s_2_1  + 2.826686 s_2_8  + 2.826686 s_2_7  > -957.725778
t_1_1 - t_1_7 - 1000.000000 s_1_7  > -969.204400
t_1_1 - t_2_7 - 1000.000000 s_2_7  > -965.648925
t_2_1 - t_1_7 - 1000.000000 s_1_7  > -969.204400
t_2_1 - t_2_7 - 1000.000000 s_2_7  > -965.648925
t_1_1 - t_1_8 - 1000.000000 s_1_8  > -954.436300
t_1_1 - t_2_8 - 1000.000000 s_2_8  > -956.516900
t_2_1 - t_1_8 - 1000.000000 s_1_8  > -954.436300
t_2_1 - t_2_8 - 1000.000000 s_2_8  > -956.516900
s_1_2 + s_1_1 + 1000 r_1_1_2 >= 2
- s_1_2 - s_1_1 - 1000 r_1_1_2 >= -1001
t_1_2 - t_1_1 + 1000.000000 u_1_1_2 - 6.219592 s_1_1  + 3.109796 s_1_8  + 3.109796 s_1_7  + 2000.000000 r_1_1_2 > 22.534533
s_2_2 + s_2_1 + 1000 r_2_1_2 >= 2
- s_2_2 - s_2_1 - 1000 r_2_1_2 >= -1001
t_2_2 - t_2_1 + 1000.000000 u_2_1_2 - 5.653373 s_2_1  + 2.826686 s_2_8  + 2.826686 s_2_7  + 2000.000000 r_2_1_2 > 42.274222
s_1_2 + s_1_3 + 1000 r_1_2_3 >= 2
- s_1_2 - s_1_3 - 1000 r_1_2_3 >= -1001
t_1_2 - t_1_3 - 1000.000000 u_1_2_3 - 6.219592 s_1_3  + 3.109796 s_1_8  + 3.109796 s_1_7  + 2000.000000 r_1_2_3 > -997.517733
s_2_2 + s_2_3 + 1000 r_2_2_3 >= 2
- s_2_2 - s_2_3 - 1000 r_2_2_3 >= -1001
t_2_2 - t_2_3 - 1000.000000 u_2_2_3 - 5.653373 s_2_3  + 2.826686 s_2_8  + 2.826686 s_2_7  + 2000.000000 r_2_2_3 > -994.665217
s_1_2 + s_1_4 + 1000 r_1_2_4 >= 2
- s_1_2 - s_1_4 - 1000 r_1_2_4 >= -1001
t_1_2 - t_1_4 - 1000.000000 u_1_2_4 - 3.109796 s_1_4  + 3.109796 s_1_7  + 2000.000000 r_1_2_4 > -995.077600
s_2_2 + s_2_4 + 1000 r_2_2_4 >= 2
- s_2_2 - s_2_4 - 1000 r_2_2_4 >= -1001
t_2_2 - t_2_4 - 1000.000000 u_2_2_4 - 2.826686 s_2_4  + 2.826686 s_2_7  + 2000.000000 r_2_2_4 > -991.794050
s_1_2 + s_1_5 + 1000 r_1_2_5 >= 2
- s_1_2 - s_1_5 - 1000 r_1_2_5 >= -1001
t_1_2 - t_1_5 - 1000.000000 u_1_2_5 - 3.109796 s_1_5  + 3.109796 s_1_8  + 2000.000000 r_1_2_5 > -989.431900
s_2_2 + s_2_5 + 1000 r_2_2_5 >= 2
- s_2_2 - s_2_5 - 1000 r_2_2_5 >= -1001
t_2_2 - t_2_5 - 1000.000000 u_2_2_5 - 2.826686 s_2_5  + 2.826686 s_2_8  + 2000.000000 r_2_2_5 > -979.202600
t_1_6 - t_1_2 - 1003.109796 s_1_2  + 3.109796 s_1_7  > -977.489600
t_1_6 - t_2_2 - 1002.826686 s_2_2  + 2.826686 s_2_7  > -957.963489
t_2_6 - t_1_2 - 1003.109796 s_1_2  + 3.109796 s_1_7  > -977.489600
t_2_6 - t_2_2 - 1002.826686 s_2_2  + 2.826686 s_2_7  > -957.963489
t_1_2 - t_1_7 - 1000.000000 s_1_7  > -969.204400
t_1_2 - t_2_7 - 1000.000000 s_2_7  > -965.648925
t_2_2 - t_1_7 - 1000.000000 s_1_7  > -969.204400
t_2_2 - t_2_7 - 1000.000000 s_2_7  > -965.648925
s_1_2 + s_1_8 + 1000 r_1_2_8 >= 2
- s_1_2 - s_1_8 - 1000 r_1_2_8 >= -1001
t_1_2 - t_1_8 - 1000.000000 u_1_2_8 - 0.000000 s_1_8  + 2000.000000 r_1_2_8 > -954.436300
s_2_2 + s_2_8 + 1000 r_2_2_8 >= 2
- s_2_2 - s_2_8 - 1000 r_2_2_8 >= -1001
t_2_2 - t_2_8 - 1000.000000 u_2_2_8 - 0.000000 s_2_8  + 2000.000000 r_2_2_8 > -956.516900
s_1_3 + s_1_1 + 1000 r_1_1_3 >= 2
- s_1_3 - s_1_1 - 1000 r_1_1_3 >= -1001
t_1_3 - t_1_1 + 1000.000000 u_1_1_3 - 6.219592 s_1_1  + 3.109796 s_1_8  + 3.109796 s_1_7  + 2000.000000 r_1_1_3 > 22.534533
s_2_3 + s_2_1 + 1000 r_2_1_3 >= 2
- s_2_3 - s_2_1 - 1000 r_2_1_3 >= -1001
t_2_3 - t_2_1 + 1000.000000 u_2_1_3 - 5.653373 s_2_1  + 2.826686 s_2_8  + 2.826686 s_2_7  + 2000.000000 r_2_1_3 > 42.274222
s_1_3 + s_1_2 + 1000 r_1_2_3 >= 2
- s_1_3 - s_1_2 - 1000 r_1_2_3 >= -1001
t_1_3 - t_1_2 + 1000.000000 u_1_2_3 - 3.109796 s_1_2  + 3.109796 s_1_7  + 2000.000000 r_1_2_3 > 22.510400
s_2_3 + s_2_2 + 1000 r_2_2_3 >= 2
- s_2_3 - s_2_2 - 1000 r_2_2_3 >= -1001
t_2_3 - t_2_2 + 1000.000000 u_2_2_3 - 2.826686 s_2_2  + 2.826686 s_2_7  + 2000.000000 r_2_2_3 > 42.036511
s_1_3 + s_1_4 + 1000 r_1_3_4 >= 2
- s_1_3 - s_1_4 - 1000 r_1_3_4 >= -1001
t_1_3 - t_1_4 - 1000.000000 u_1_3_4 - 3.109796 s_1_4  + 3.109796 s_1_7  + 2000.000000 r_1_3_4 > -995.077600
s_2_3 + s_2_4 + 1000 r_2_3_4 >= 2
- s_2_3 - s_2_4 - 1000 r_2_3_4 >= -1001
t_2_3 - t_2_4 - 1000.000000 u_2_3_4 - 2.826686 s_2_4  + 2.826686 s_2_7  + 2000.000000 r_2_3_4 > -991.794050
s_1_3 + s_1_5 + 1000 r_1_3_5 >= 2
- s_1_3 - s_1_5 - 1000 r_1_3_5 >= -1001
t_1_3 - t_1_5 - 1000.000000 u_1_3_5 - 3.109796 s_1_5  + 3.109796 s_1_8  + 2000.000000 r_1_3_5 > -989.431900
s_2_3 + s_2_5 + 1000 r_2_3_5 >= 2
- s_2_3 - s_2_5 - 1000 r_2_3_5 >= -1001
t_2_3 - t_2_5 - 1000.000000 u_2_3_5 - 2.826686 s_2_5  + 2.826686 s_2_8  + 2000.000000 r_2_3_5 > -979.202600
t_1_6 - t_1_3 - 1006.219592 s_1_3  + 3.109796 s_1_8  + 3.109796 s_1_7  > -997.517733
t_1_6 - t_2_3 - 1005.653373 s_2_3  + 2.826686 s_2_8  + 2.826686 s_2_7  > -994.665217
t_2_6 - t_1_3 - 1006.219592 s_1_3  + 3.109796 s_1_8  + 3.109796 s_1_7  > -997.517733
t_2_6 - t_2_3 - 1005.653373 s_2_3  + 2.826686 s_2_8  + 2.826686 s_2_7  > -994.665217
t_1_3 - t_1_7 - 1000.000000 s_1_7  > -969.204400
t_1_3 - t_2_7 - 1000.000000 s_2_7  > -965.648925
t_2_3 - t_1_7 - 1000.000000 s_1_7  > -969.204400
t_2_3 - t_2_7 - 1000.000000 s_2_7  > -965.648925
t_1_3 - t_1_8 - 1000.000000 s_1_8  > -954.436300
t_1_3 - t_2_8 - 1000.000000 s_2_8  > -956.516900
t_2_3 - t_1_8 - 1000.000000 s_1_8  > -954.436300
t_2_3 - t_2_8 - 1000.000000 s_2_8  > -956.516900
s_1_4 + s_1_1 + 1000 r_1_1_4 >= 2
- s_1_4 - s_1_1 - 1000 r_1_1_4 >= -1001
t_1_4 - t_1_1 + 1000.000000 u_1_1_4 - 6.219592 s_1_1  + 3.109796 s_1_8  + 3.109796 s_1_7  + 2000.000000 r_1_1_4 > 22.534533
s_2_4 + s_2_1 + 1000 r_2_1_4 >= 2
- s_2_4 - s_2_1 - 1000 r_2_1_4 >= -1001
t_2_4 - t_2_1 + 1000.000000 u_2_1_4 - 5.653373 s_2_1  + 2.826686 s_2_8  + 2.826686 s_2_7  + 2000.000000 r_2_1_4 > 42.274222
s_1_4 + s_1_2 + 1000 r_1_2_4 >= 2
- s_1_4 - s_1_2 - 1000 r_1_2_4 >= -1001
t_1_4 - t_1_2 + 1000.000000 u_1_2_4 - 3.109796 s_1_2  + 3.109796 s_1_7  + 2000.000000 r_1_2_4 > 22.510400
s_2_4 + s_2_2 + 1000 r_2_2_4 >= 2
- s_2_4 - s_2_2 - 1000 r_2_2_4 >= -1001
t_2_4 - t_2_2 + 1000.000000 u_2_2_4 - 2.826686 s_2_2  + 2.826686 s_2_7  + 2000.000000 r_2_2_4 > 42.036511
s_1_4 + s_1_3 + 1000 r_1_3_4 >= 2
- s_1_4 - s_1_3 - 1000 r_1_3_4 >= -1001
t_1_4 - t_1_3 + 1000.000000 u_1_3_4 - 6.219592 s_1_3  + 3.109796 s_1_8  + 3.109796 s_1_7  + 2000.000000 r_1_3_4 > 2.482267
s_2_4 + s_2_3 + 1000 r_2_3_4 >= 2
- s_2_4 - s_2_3 - 1000 r_2_3_4 >= -1001
t_2_4 - t_2_3 + 1000.000000 u_2_3_4 - 5.653373 s_2_3  + 2.826686 s_2_8  + 2.826686 s_2_7  + 2000.000000 r_2_3_4 > 5.334783
s_1_4 + s_1_5 + 1000 r_1_4_5 >= 2
- s_1_4 - s_1_5 - 1000 r_1_4_5 >= -1001
t_1_4 - t_1_5 - 1000.000000 u_1_4_5 - 3.109796 s_1_5  + 3.109796 s_1_8  + 2000.000000 r_1_4_5 > -989.431900
s_2_4 + s_2_5 + 1000 r_2_4_5 >= 2
- s_2_4 - s_2_5 - 1000 r_2_4_5 >= -1001
t_2_4 - t_2_5 - 1000.000000 u_2_4_5 - 2.826686 s_2_5  + 2.826686 s_2_8  + 2000.000000 r_2_4_5 > -979.202600
t_1_6 - t_1_4 - 1003.109796 s_1_4  + 3.109796 s_1_7  > -995.077600
t_1_6 - t_2_4 - 1002.826686 s_2_4  + 2.826686 s_2_7  > -991.794050
t_2_6 - t_1_4 - 1003.109796 s_1_4  + 3.109796 s_1_7  > -995.077600
t_2_6 - t_2_4 - 1002.826686 s_2_4  + 2.826686 s_2_7  > -991.794050
t_1_4 - t_1_7 - 1000.000000 s_1_7  > -969.204400
t_1_4 - t_2_7 - 1000.000000 s_2_7  > -965.648925
t_2_4 - t_1_7 - 1000.000000 s_1_7  > -969.204400
t_2_4 - t_2_7 - 1000.000000 s_2_7  > -965.648925
s_1_4 + s_1_8 + 1000 r_1_4_8 >= 2
- s_1_4 - s_1_8 - 1000 r_1_4_8 >= -1001
t_1_4 - t_1_8 - 1000.000000 u_1_4_8 - 0.000000 s_1_8  + 2000.000000 r_1_4_8 > -954.436300
s_2_4 + s_2_8 + 1000 r_2_4_8 >= 2
- s_2_4 - s_2_8 - 1000 r_2_4_8 >= -1001
t_2_4 - t_2_8 - 1000.000000 u_2_4_8 - 0.000000 s_2_8  + 2000.000000 r_2_4_8 > -956.516900
s_1_5 + s_1_1 + 1000 r_1_1_5 >= 2
- s_1_5 - s_1_1 - 1000 r_1_1_5 >= -1001
t_1_5 - t_1_1 + 1000.000000 u_1_1_5 - 6.219592 s_1_1  + 3.109796 s_1_8  + 3.109796 s_1_7  + 2000.000000 r_1_1_5 > 22.534533
s_2_5 + s_2_1 + 1000 r_2_1_5 >= 2
- s_2_5 - s_2_1 - 1000 r_2_1_5 >= -1001
t_2_5 - t_2_1 + 1000.000000 u_2_1_5 - 5.653373 s_2_1  + 2.826686 s_2_8  + 2.826686 s_2_7  + 2000.000000 r_2_1_5 > 42.274222
s_1_5 + s_1_2 + 1000 r_1_2_5 >= 2
- s_1_5 - s_1_2 - 1000 r_1_2_5 >= -1001
t_1_5 - t_1_2 + 1000.000000 u_1_2_5 - 3.109796 s_1_2  + 3.109796 s_1_7  + 2000.000000 r_1_2_5 > 22.510400
s_2_5 + s_2_2 + 1000 r_2_2_5 >= 2
- s_2_5 - s_2_2 - 1000 r_2_2_5 >= -1001
t_2_5 - t_2_2 + 1000.000000 u_2_2_5 - 2.826686 s_2_2  + 2.826686 s_2_7  + 2000.000000 r_2_2_5 > 42.036511
s_1_5 + s_1_3 + 1000 r_1_3_5 >= 2
- s_1_5 - s_1_3 - 1000 r_1_3_5 >= -1001
t_1_5 - t_1_3 + 1000.000000 u_1_3_5 - 6.219592 s_1_3  + 3.109796 s_1_8  + 3.109796 s_1_7  + 2000.000000 r_1_3_5 > 2.482267
s_2_5 + s_2_3 + 1000 r_2_3_5 >= 2
- s_2_5 - s_2_3 - 1000 r_2_3_5 >= -1001
t_2_5 - t_2_3 + 1000.000000 u_2_3_5 - 5.653373 s_2_3  + 2.826686 s_2_8  + 2.826686 s_2_7  + 2000.000000 r_2_3_5 > 5.334783
s_1_5 + s_1_4 + 1000 r_1_4_5 >= 2
- s_1_5 - s_1_4 - 1000 r_1_4_5 >= -1001
t_1_5 - t_1_4 + 1000.000000 u_1_4_5 - 3.109796 s_1_4  + 3.109796 s_1_7  + 2000.000000 r_1_4_5 > 4.922400
s_2_5 + s_2_4 + 1000 r_2_4_5 >= 2
- s_2_5 - s_2_4 - 1000 r_2_4_5 >= -1001
t_2_5 - t_2_4 + 1000.000000 u_2_4_5 - 2.826686 s_2_4  + 2.826686 s_2_7  + 2000.000000 r_2_4_5 > 8.205950
t_1_6 - t_1_5 - 1003.109796 s_1_5  + 3.109796 s_1_8  > -989.431900
t_1_6 - t_2_5 - 1002.826686 s_2_5  + 2.826686 s_2_8  > -979.202600
t_2_6 - t_1_5 - 1003.109796 s_1_5  + 3.109796 s_1_8  > -989.431900
t_2_6 - t_2_5 - 1002.826686 s_2_5  + 2.826686 s_2_8  > -979.202600
s_1_5 + s_1_7 + 1000 r_1_5_7 >= 2
- s_1_5 - s_1_7 - 1000 r_1_5_7 >= -1001
t_1_5 - t_1_7 - 1000.000000 u_1_5_7 - 0.000000 s_1_7  + 2000.000000 r_1_5_7 > -969.204400
s_2_5 + s_2_7 + 1000 r_2_5_7 >= 2
- s_2_5 - s_2_7 - 1000 r_2_5_7 >= -1001
t_2_5 - t_2_7 - 1000.000000 u_2_5_7 - 0.000000 s_2_7  + 2000.000000 r_2_5_7 > -965.648925
t_1_5 - t_1_8 - 1000.000000 s_1_8  > -954.436300
t_1_5 - t_2_8 - 1000.000000 s_2_8  > -956.516900
t_2_5 - t_1_8 - 1000.000000 s_1_8  > -954.436300
t_2_5 - t_2_8 - 1000.000000 s_2_8  > -956.516900
t_1_6 - t_1_7 - 1000.000000 s_1_7  > -969.204400
t_1_6 - t_2_7 - 1000.000000 s_2_7  > -965.648925
t_2_6 - t_1_7 - 1000.000000 s_1_7  > -969.204400
t_2_6 - t_2_7 - 1000.000000 s_2_7  > -965.648925
s_1_7 + s_1_5 + 1000 r_1_5_7 >= 2
- s_1_7 - s_1_5 - 1000 r_1_5_7 >= -1001
t_1_7 - t_1_5 + 1000.000000 u_1_5_7 - 3.109796 s_1_5  + 3.109796 s_1_8  + 2000.000000 r_1_5_7 > 10.568100
s_2_7 + s_2_5 + 1000 r_2_5_7 >= 2
- s_2_7 - s_2_5 - 1000 r_2_5_7 >= -1001
t_2_7 - t_2_5 + 1000.000000 u_2_5_7 - 2.826686 s_2_5  + 2.826686 s_2_8  + 2000.000000 r_2_5_7 > 20.797400
s_1_7 + s_1_8 + 1000 r_1_7_8 >= 2
- s_1_7 - s_1_8 - 1000 r_1_7_8 >= -1001
t_1_7 - t_1_8 - 1000.000000 u_1_7_8 - 0.000000 s_1_8  + 2000.000000 r_1_7_8 > -954.436300
s_2_7 + s_2_8 + 1000 r_2_7_8 >= 2
- s_2_7 - s_2_8 - 1000 r_2_7_8 >= -1001
t_2_7 - t_2_8 - 1000.000000 u_2_7_8 - 0.000000 s_2_8  + 2000.000000 r_2_7_8 > -956.516900
s_1_8 + s_1_2 + 1000 r_1_2_8 >= 2
- s_1_8 - s_1_2 - 1000 r_1_2_8 >= -1001
t_1_8 - t_1_2 + 1000.000000 u_1_2_8 - 3.109796 s_1_2  + 3.109796 s_1_7  + 2000.000000 r_1_2_8 > 22.510400
s_2_8 + s_2_2 + 1000 r_2_2_8 >= 2
- s_2_8 - s_2_2 - 1000 r_2_2_8 >= -1001
t_2_8 - t_2_2 + 1000.000000 u_2_2_8 - 2.826686 s_2_2  + 2.826686 s_2_7  + 2000.000000 r_2_2_8 > 42.036511
s_1_8 + s_1_4 + 1000 r_1_4_8 >= 2
- s_1_8 - s_1_4 - 1000 r_1_4_8 >= -1001
t_1_8 - t_1_4 + 1000.000000 u_1_4_8 - 3.109796 s_1_4  + 3.109796 s_1_7  + 2000.000000 r_1_4_8 > 4.922400
s_2_8 + s_2_4 + 1000 r_2_4_8 >= 2
- s_2_8 - s_2_4 - 1000 r_2_4_8 >= -1001
t_2_8 - t_2_4 + 1000.000000 u_2_4_8 - 2.826686 s_2_4  + 2.826686 s_2_7  + 2000.000000 r_2_4_8 > 8.205950
s_1_8 + s_1_7 + 1000 r_1_7_8 >= 2
- s_1_8 - s_1_7 - 1000 r_1_7_8 >= -1001
t_1_8 - t_1_7 + 1000.000000 u_1_7_8 - 0.000000 s_1_7  + 2000.000000 r_1_7_8 > 30.795600
s_2_8 + s_2_7 + 1000 r_2_7_8 >= 2
- s_2_8 - s_2_7 - 1000 r_2_7_8 >= -1001
t_2_8 - t_2_7 + 1000.000000 u_2_7_8 - 0.000000 s_2_7  + 2000.000000 r_2_7_8 > 34.351075
Binary
s_1_1
s_2_1
s_1_2
s_2_2
s_1_3
s_2_3
s_1_4
s_2_4
s_1_5
s_2_5
s_1_6
s_2_6
s_1_7
s_2_7
s_1_8
s_2_8
u_1_1_2
r_1_1_2
u_2_1_2
r_2_1_2
u_1_1_3
r_1_1_3
u_2_1_3
r_2_1_3
u_1_1_4
r_1_1_4
u_2_1_4
r_2_1_4
u_1_1_5
r_1_1_5
u_2_1_5
r_2_1_5
u_1_2_3
r_1_2_3
u_2_2_3
r_2_2_3
u_1_2_4
r_1_2_4
u_2_2_4
r_2_2_4
u_1_2_5
r_1_2_5
u_2_2_5
r_2_2_5
u_1_2_8
r_1_2_8
u_2_2_8
r_2_2_8
u_1_3_4
r_1_3_4
u_2_3_4
r_2_3_4
u_1_3_5
r_1_3_5
u_2_3_5
r_2_3_5
u_1_4_5
r_1_4_5
u_2_4_5
r_2_4_5
u_1_4_8
r_1_4_8
u_2_4_8
r_2_4_8
u_1_5_7
r_1_5_7
u_2_5_7
r_2_5_7
u_1_7_8
r_1_7_8
u_2_7_8
r_2_7_8

End
